\ SCIP STATISTICS
\   Problem name     : /Users/jflxb/Documents/aq-models-rs/unnamed.lp
Minimize
 Obj: +3 x_0 +1 quadobjvar
Subject to
 quadobj: -1 quadobjvar + [ -8 x_0 * x_3 ] <= +0
Bounds
 0 <= x_0 <= 1
 0 <= x_3 <= 1
 quadobjvar free
Binaries
 x_0 x_3
End
